(declare-fun ExpandObjSwitcher () Real)
(declare-fun CreateAsClass () Bool)
(declare-fun Constructed_Argument_t () String)
(declare-fun Constructed_Argument_Array_Length () Int)
(declare-fun Constructed_Argument_2_t () String)
(declare-fun Constructed_Argument_3_t () String)
(declare-fun Constructed_Argument_4_t () String)
(declare-fun Constructed_Argument_5_t () String)
(declare-fun Constructed_Argument_6_t () String)
(declare-fun Constructed_Argument_7_t () String)
(declare-fun Constructed_Argument_8_t () String)
(declare-fun Constructed_Argument_9_t () String)
(declare-fun Constructed_Argument_10_t () String)
(declare-fun Constructed_Argument_11_t () String)
(declare-fun Constructed_Argument_12_t () String)
(declare-fun Constructed_Argument_13_t () String)
(declare-fun Constructed_Argument_14_t () String)
(declare-fun Constructed_Argument_15_t () String)
(declare-fun Constructed_Argument_16_t () String)
(declare-fun Constructed_Argument_17_t () String)
(declare-fun Constructed_Argument_18_t () String)
(declare-fun Constructed_Argument_19_t () String)
(declare-fun Constructed_Argument_20_t () String)
(declare-fun Constructed_Argument_21_t () String)
(declare-fun Constructed_Argument_22_t () String)
(declare-fun Constructed_Argument_23_t () String)
(define-funs-rec ( ( str.repeat ((x!1 String) (x!2 Int)) String)
                   ( str.whiteLeft ((x!1 String) (x!2 Int)) Int)
                   ( str.whiteRight ((x!1 String) (x!2 Int)) Int))
                 ( (ite (<= x!2 0)
                        ""
                        (str.++ x!1 ((_ str.repeat 0) x!1 (- x!2 1))))
                   (ite (= (str.at x!1 x!2) " ")
                        ((_ str.whiteLeft 0) x!1 (+ x!2 1))
                        x!2)
                   (ite (= (str.at x!1 x!2) " ")
                        ((_ str.whiteRight 0) x!1 (- x!2 1))
                        x!2)))
(assert (= ExpandObjSwitcher 0.0))
(assert (not CreateAsClass))
(assert (= Constructed_Argument_t "array_string"))
(assert (>= Constructed_Argument_Array_Length 0))
(assert (not (= Constructed_Argument_2_t "string")))
(assert (not (= Constructed_Argument_2_t "number")))
(assert (not (= Constructed_Argument_2_t "boolean")))
(assert (not (= Constructed_Argument_2_t "object")))
(assert (not (= Constructed_Argument_2_t "array_number")))
(assert (not (= Constructed_Argument_2_t "array_string")))
(assert (not (= Constructed_Argument_2_t "array_bool")))
(assert (not (= Constructed_Argument_2_t "null")))
(assert (not (= Constructed_Argument_3_t "string")))
(assert (not (= Constructed_Argument_3_t "number")))
(assert (not (= Constructed_Argument_3_t "boolean")))
(assert (not (= Constructed_Argument_3_t "object")))
(assert (not (= Constructed_Argument_3_t "array_number")))
(assert (not (= Constructed_Argument_3_t "array_string")))
(assert (not (= Constructed_Argument_3_t "array_bool")))
(assert (not (= Constructed_Argument_3_t "null")))
(assert (not (= Constructed_Argument_4_t "string")))
(assert (not (= Constructed_Argument_4_t "number")))
(assert (not (= Constructed_Argument_4_t "boolean")))
(assert (not (= Constructed_Argument_4_t "object")))
(assert (not (= Constructed_Argument_4_t "array_number")))
(assert (not (= Constructed_Argument_4_t "array_string")))
(assert (not (= Constructed_Argument_4_t "array_bool")))
(assert (not (= Constructed_Argument_4_t "null")))
(assert (not (= Constructed_Argument_5_t "string")))
(assert (not (= Constructed_Argument_5_t "number")))
(assert (not (= Constructed_Argument_5_t "boolean")))
(assert (not (= Constructed_Argument_5_t "object")))
(assert (not (= Constructed_Argument_5_t "array_number")))
(assert (not (= Constructed_Argument_5_t "array_string")))
(assert (not (= Constructed_Argument_5_t "array_bool")))
(assert (not (= Constructed_Argument_5_t "null")))
(assert (not (= Constructed_Argument_6_t "string")))
(assert (not (= Constructed_Argument_6_t "number")))
(assert (not (= Constructed_Argument_6_t "boolean")))
(assert (not (= Constructed_Argument_6_t "object")))
(assert (not (= Constructed_Argument_6_t "array_number")))
(assert (not (= Constructed_Argument_6_t "array_string")))
(assert (not (= Constructed_Argument_6_t "array_bool")))
(assert (not (= Constructed_Argument_6_t "null")))
(assert (not (= Constructed_Argument_7_t "string")))
(assert (not (= Constructed_Argument_7_t "number")))
(assert (not (= Constructed_Argument_7_t "boolean")))
(assert (not (= Constructed_Argument_7_t "object")))
(assert (not (= Constructed_Argument_7_t "array_number")))
(assert (not (= Constructed_Argument_7_t "array_string")))
(assert (not (= Constructed_Argument_7_t "array_bool")))
(assert (not (= Constructed_Argument_7_t "null")))
(assert (not (= Constructed_Argument_8_t "string")))
(assert (not (= Constructed_Argument_8_t "number")))
(assert (not (= Constructed_Argument_8_t "boolean")))
(assert (not (= Constructed_Argument_8_t "object")))
(assert (not (= Constructed_Argument_8_t "array_number")))
(assert (not (= Constructed_Argument_8_t "array_string")))
(assert (not (= Constructed_Argument_8_t "array_bool")))
(assert (not (= Constructed_Argument_8_t "null")))
(assert (not (= Constructed_Argument_9_t "string")))
(assert (not (= Constructed_Argument_9_t "number")))
(assert (not (= Constructed_Argument_9_t "boolean")))
(assert (not (= Constructed_Argument_9_t "object")))
(assert (not (= Constructed_Argument_9_t "array_number")))
(assert (not (= Constructed_Argument_9_t "array_string")))
(assert (not (= Constructed_Argument_9_t "array_bool")))
(assert (not (= Constructed_Argument_9_t "null")))
(assert (not (= Constructed_Argument_10_t "string")))
(assert (not (= Constructed_Argument_10_t "number")))
(assert (not (= Constructed_Argument_10_t "boolean")))
(assert (not (= Constructed_Argument_10_t "object")))
(assert (not (= Constructed_Argument_10_t "array_number")))
(assert (not (= Constructed_Argument_10_t "array_string")))
(assert (not (= Constructed_Argument_10_t "array_bool")))
(assert (not (= Constructed_Argument_10_t "null")))
(assert (not (= Constructed_Argument_11_t "string")))
(assert (not (= Constructed_Argument_11_t "number")))
(assert (not (= Constructed_Argument_11_t "boolean")))
(assert (not (= Constructed_Argument_11_t "object")))
(assert (not (= Constructed_Argument_11_t "array_number")))
(assert (not (= Constructed_Argument_11_t "array_string")))
(assert (not (= Constructed_Argument_11_t "array_bool")))
(assert (not (= Constructed_Argument_11_t "null")))
(assert (not (= Constructed_Argument_12_t "string")))
(assert (not (= Constructed_Argument_12_t "number")))
(assert (not (= Constructed_Argument_12_t "boolean")))
(assert (not (= Constructed_Argument_12_t "object")))
(assert (not (= Constructed_Argument_12_t "array_number")))
(assert (not (= Constructed_Argument_12_t "array_string")))
(assert (not (= Constructed_Argument_12_t "array_bool")))
(assert (not (= Constructed_Argument_12_t "null")))
(assert (not (= Constructed_Argument_13_t "string")))
(assert (not (= Constructed_Argument_13_t "number")))
(assert (not (= Constructed_Argument_13_t "boolean")))
(assert (not (= Constructed_Argument_13_t "object")))
(assert (not (= Constructed_Argument_13_t "array_number")))
(assert (not (= Constructed_Argument_13_t "array_string")))
(assert (not (= Constructed_Argument_13_t "array_bool")))
(assert (not (= Constructed_Argument_13_t "null")))
(assert (not (= Constructed_Argument_14_t "string")))
(assert (not (= Constructed_Argument_14_t "number")))
(assert (not (= Constructed_Argument_14_t "boolean")))
(assert (not (= Constructed_Argument_14_t "object")))
(assert (not (= Constructed_Argument_14_t "array_number")))
(assert (not (= Constructed_Argument_14_t "array_string")))
(assert (not (= Constructed_Argument_14_t "array_bool")))
(assert (not (= Constructed_Argument_14_t "null")))
(assert (not (= Constructed_Argument_15_t "string")))
(assert (not (= Constructed_Argument_15_t "number")))
(assert (not (= Constructed_Argument_15_t "boolean")))
(assert (not (= Constructed_Argument_15_t "object")))
(assert (not (= Constructed_Argument_15_t "array_number")))
(assert (not (= Constructed_Argument_15_t "array_string")))
(assert (not (= Constructed_Argument_15_t "array_bool")))
(assert (not (= Constructed_Argument_15_t "null")))
(assert (not (= Constructed_Argument_16_t "string")))
(assert (not (= Constructed_Argument_16_t "number")))
(assert (not (= Constructed_Argument_16_t "boolean")))
(assert (not (= Constructed_Argument_16_t "object")))
(assert (not (= Constructed_Argument_16_t "array_number")))
(assert (not (= Constructed_Argument_16_t "array_string")))
(assert (not (= Constructed_Argument_16_t "array_bool")))
(assert (not (= Constructed_Argument_16_t "null")))
(assert (not (= Constructed_Argument_17_t "string")))
(assert (not (= Constructed_Argument_17_t "number")))
(assert (not (= Constructed_Argument_17_t "boolean")))
(assert (not (= Constructed_Argument_17_t "object")))
(assert (not (= Constructed_Argument_17_t "array_number")))
(assert (not (= Constructed_Argument_17_t "array_string")))
(assert (not (= Constructed_Argument_17_t "array_bool")))
(assert (not (= Constructed_Argument_17_t "null")))
(assert (not (= Constructed_Argument_18_t "string")))
(assert (not (= Constructed_Argument_18_t "number")))
(assert (not (= Constructed_Argument_18_t "boolean")))
(assert (not (= Constructed_Argument_18_t "object")))
(assert (not (= Constructed_Argument_18_t "array_number")))
(assert (not (= Constructed_Argument_18_t "array_string")))
(assert (not (= Constructed_Argument_18_t "array_bool")))
(assert (not (= Constructed_Argument_18_t "null")))
(assert (not (= Constructed_Argument_19_t "string")))
(assert (not (= Constructed_Argument_19_t "number")))
(assert (not (= Constructed_Argument_19_t "boolean")))
(assert (not (= Constructed_Argument_19_t "object")))
(assert (not (= Constructed_Argument_19_t "array_number")))
(assert (not (= Constructed_Argument_19_t "array_string")))
(assert (not (= Constructed_Argument_19_t "array_bool")))
(assert (not (= Constructed_Argument_19_t "null")))
(assert (not (= Constructed_Argument_20_t "string")))
(assert (not (= Constructed_Argument_20_t "number")))
(assert (not (= Constructed_Argument_20_t "boolean")))
(assert (not (= Constructed_Argument_20_t "object")))
(assert (not (= Constructed_Argument_20_t "array_number")))
(assert (not (= Constructed_Argument_20_t "array_string")))
(assert (not (= Constructed_Argument_20_t "array_bool")))
(assert (not (= Constructed_Argument_20_t "null")))
(assert (not (= Constructed_Argument_21_t "string")))
(assert (not (= Constructed_Argument_21_t "number")))
(assert (not (= Constructed_Argument_21_t "boolean")))
(assert (not (= Constructed_Argument_21_t "object")))
(assert (not (= Constructed_Argument_21_t "array_number")))
(assert (not (= Constructed_Argument_21_t "array_string")))
(assert (not (= Constructed_Argument_21_t "array_bool")))
(assert (not (= Constructed_Argument_21_t "null")))
(assert (not (= Constructed_Argument_22_t "string")))
(assert (not (= Constructed_Argument_22_t "number")))
(assert (not (= Constructed_Argument_22_t "boolean")))
(assert (not (= Constructed_Argument_22_t "object")))
(assert (not (= Constructed_Argument_22_t "array_number")))
(assert (not (= Constructed_Argument_22_t "array_string")))
(assert (not (= Constructed_Argument_22_t "array_bool")))
(assert (not (= Constructed_Argument_22_t "null")))
(assert (not (= Constructed_Argument_23_t "string")))
(assert (not (= Constructed_Argument_23_t "number")))
(assert (not (= Constructed_Argument_23_t "boolean")))
(assert (not (= Constructed_Argument_23_t "object")))
(assert (not (= Constructed_Argument_23_t "array_number")))
(assert (not (= Constructed_Argument_23_t "array_string")))
(assert (not (= Constructed_Argument_23_t "array_bool")))
(assert (= Constructed_Argument_23_t "null"))

(check-sat)